units              real
atom_style         full
timestep	   0.5
boundary	   p p f

pair_style         lj/cut/coul/cut 12.0
bond_style         harmonic
angle_style        harmonic
dihedral_style     fourier
improper_style     cvff

pair_modify        mix arithmetic
special_bonds      amber
neighbor           2.0 bin
neigh_modify       every 1 delay 0 check yes
