variable layer index 17
variable temp index 230000
variable rand equal round(random(0,1e7,452345))

include settings.lmp

read_data 001-dbt_3x3_${layer}L.data

include  ff_formic_acid_fe304.param

dump  dmp all custom 10000 swap_${layer}L.lammpstrj id mol type q x y z
dump_modify dmp sort id

group  fe type 7 6
variable nfe equal count(fe)
#variable nsteps equal (${nfe}/2)*(${nfe}/2)
variable nsteps equal 2000

compute  coord fe coord/atom cutoff 2.0
dump coord  fe custom 1 fe_${layer}L.coord id type c_coord
dump_modify  coord sort id
run  0
variable  fet atom c_coord==4
group  fet variable fet
group  feo subtract fe fet
undump  coord

set  group all mol 0
set  group fet mol 1
set  group feo mol 2

variable  fet3 atom "gmask(fet) && q == 1.575"
group  fet3 dynamic fe var fet3 every 100
variable  rfet3 equal count(fet3)/count(fet)

variable  feo3 atom "gmask(feo) && q == 1.575"
group  feo3 dynamic fe var feo3 every 100
variable  rfeo3 equal count(feo3)/count(feo)

variable cnum equal 1  # Number of SA cycles 

label temp_loop

  variable ftemp equal v_temp

  # Electrostatic relaxation-long
  fix  swp fe atom/swap 1 1 ${rand} ${temp} ke no types 6 7
  thermo  1000
  thermo_style custom step v_ftemp v_cnum pe f_swp[1] f_swp[2] v_rfet3 v_rfeo3  
  run  ${nsteps}

  variable cnum equal (${cnum}-1)

  unfix swp

next temp
jump SELF temp_loop
label break

thermo_style custom step temp pe
write_data 001-dbt_3x3_${layer}L_swp.data

# Full minimization
fix             relax all box/relax x 0.0 y 0.0 couple xy
minimize        1.0e-6 1.0e-9 1000 10000
unfix relax

# Electrostatic relaxation-short
fix  swp fe atom/swap 1 1 ${rand} 0.1 ke no types 6 7
thermo  1000
thermo_style custom step temp pe f_swp[1] f_swp[2] v_rfet3 v_rfeo3
run  ${nsteps}
unfix	swp
thermo_style	custom temp step pe

# Full minimization
fix             relax all box/relax x 0.0 y 0.0 couple xy
minimize        1.0e-6 1.0e-9 1000 10000
unfix relax

write_data 001-dbt_3x3_${layer}L_min.data

compute pe all pe
fix print_pe all ave/time 1 1 1 v_rfet3 v_rfeo3 c_pe file ../info_${layer}L.txt off 1
run 0
