variable  rand equal round(random(0,1e7,452345))
variable layer index 13

variable temp index 500000 450000 405000 364500 328050 295245 265720 239148 215233 193709 174338 156904 141213 127091 114381 102942 92647 83382 75043 67538 60784 54705 49234 44310 39879 35891 32301 29070 26163 23546 21191 19071 17163 15446 13901 12510 11259 10133 9119 8207 7386 6647 5982 5383 4844 4359 3923 3530 3177 2859 2573 2315 2083 1874 1686 1517 1365 1228 1105 994 894 804 723 650 585 526 473 425 382 343 308 277 249 224 201 180 162 145 130 117 105 94 84 75 67 60 54 48 43 38 34 30 27 24 21 18 16 14 12 10 9 8 7 6 5 4 3 2 1


include settings.lmp

read_data 001-dbt_3x3_${layer}L_on_24bulk_init.data

include ff_formic_acid_fe304.param

dump dmp all custom 10000 swap_${layer}L.lammpstrj id mol type q x y z
dump_modify dmp sort id

# Formate coated fe ions.
group fe molecule 99
variable nfe equal count(fe)
variable nsteps equal round((${nfe}*${nfe})/4)

compute coord fe coord/atom cutoff 2.0
dump coord fe custom 1 fe_${layer}L.coord id type c_coord
dump_modify coord sort id
run 0
variable fet atom c_coord==4
group fet variable fet
group feo subtract fe fet
undump coord

# Reset molIDs 
set mol 1 mol 0
set mol 2 mol 0
set group fet mol 1
set group feo mol 2

variable fet3 atom "gmask(fet) && q == 1.575"
group fet3 dynamic fe var fet3 every 100
variable rfet3 equal count(fet3)/count(fet)

variable feo3 atom "gmask(feo) && q == 1.575"
group feo3 dynamic fe var feo3 every 100
variable rfeo3 equal count(feo3)/count(feo)

variable cnum equal 109

# High Tmc swaps to randomize the oxidation states.
fix swp fe atom/swap 1 1 ${rand} 5000000 ke no types 6 7
thermo 1000
thermo_style custom step pe f_swp[1] f_swp[2] v_rfet3 v_rfeo3
run 100000

unfix swp
thermo_style custom step temp pe
write_data 001-dbt_3x3_${layer}L_on_22bulk_rand.data

label minimize_temp

  variable ftemp equal v_temp
  
  # Electrostatic relaxation
  fix swp fe atom/swap 1 1 ${rand} ${temp} ke no types 6 7
  thermo 1000
  thermo_style custom step v_ftemp v_cnum pe f_swp[1] f_swp[2] v_rfet3 v_rfeo3
  run ${nsteps}
 
  variable cnum equal (${cnum}-1)

  unfix swp
  thermo_style custom step temp pe
  write_data  001-dbt_3x3_${layer}L_on_22bulk_${cnum}_${temp}K.data

next temp
jump SELF minimize_temp

write_data  001-dbt_3x3_${layer}L_on_22bulk_qeq.data
