variable        q1 equal 1.050  # Charge of Fe(II).
variable        q2 equal 1.575  # Charge of Fe(III).
variable        q3 equal -1.050  # Charge of O.

variable        rand equal round(random(0,1e7,452345))

include		settings.lmp

read_data	a-m111-tet.data

group		del type 4
delete_atoms	group del

mass		1 55.845
mass		2 55.845
mass		3 15.994
mass		4 11

pair_coeff	1 1 9.0298e-07  4.90620
pair_coeff	2 2 9.0298e-07  4.90620
pair_coeff	3 3 0.1554      3.16554
pair_coeff	4 4 0 0 

# Shift the bottom region to connect to upper region
region		btm block INF INF INF INF INF 11
group		btm region btm
displace_atoms	btm move 0 0 43.305 units box

reset_atom_ids sort yes

# Redistribute atomic charges

group		Fe type 1 2
group		O type 3
variable	nFe equal count(Fe)
variable	nO equal count(O)

variable	nFe_3 equal (${q1}*(${nO}-${nFe}))/(${q2}-${q1})

# Reset all Fe ions to Fe(II).
set		group Fe type 1 
 
# Set a random subset to Fe ions to Fe(III) to assure charge neutrality.
set		group Fe type/subset 2 ${nFe_3} ${rand}
 
set		type 1 charge ${q1}
set		type 2 charge ${q2}
set		type 3 charge ${q3}
 
reset_atom_ids

# Sanity check.
variable	qtot equal charge(all)
print		"total charge of system: ${qtot}"

write_data	b-m11-tet.data
